Linux optc-04-03 4.15.0-88-generic #88-Ubuntu SMP Tue Feb 11 20:11:34 UTC 2020 x86_64 x86_64 x86_64 GNU/Linux

top - 09:23:14 up 2 days, 19:58,  0 users,  load average: 0,40, 0,83, 0,94
Tasks: 467 gesamt,   1 laufend, 235 schlafend,   0 gestoppt,   0 Zombie
%CPU(s): 14,3 be,  3,9 sy,  0,0 ni, 81,8 un,  0,0 wa,  0,0 hi,  0,0 si,  0,0 st
KiB Spch : 65916192 gesamt, 62528320 frei,   716592 belegt,  2671280 Puff/Cache
KiB Swap:  8388604 gesamt,  8388604 frei,        0 belegt. 64622816 verfü Spch 

  PID USER      PR  NI    VIRT    RES    SHR S  %CPU %MEM     ZEIT+ BEFEHL
41826 bzfhende  20   0   52808   4344   3400 R  11,8  0,0   0:00.04 top
    1 root      20   0  233688   9372   6836 S   0,0  0,0   0:18.21 systemd
    2 root      20   0       0      0      0 S   0,0  0,0   0:00.29 kthreadd
    4 root       0 -20       0      0      0 I   0,0  0,0   0:00.00 kworker/0:+
    5 root      20   0       0      0      0 I   0,0  0,0   0:46.60 kworker/u9+
    7 root       0 -20       0      0      0 I   0,0  0,0   0:00.00 mm_percpu_+
    8 root      20   0       0      0      0 S   0,0  0,0   0:00.25 ksoftirqd/0
    9 root      20   0       0      0      0 I   0,0  0,0   0:46.13 rcu_sched

hard time limit: 00-04:10:00
hard mem limit: 38600

SLURM jobID: 6405162

@01 /nfs/OPTI/bzfhende/instances//./miplib2010_opm2/instances/opm2-z12-s2.mps.gz ===========
-----------------------------
So 8. Mär 09:23:14 CET 2020
-----------------------------
@03 1583655794
@05 7200
SCIP version 7.0.0 [precision: 8 byte] [memory: block] [mode: optimized] [LP solver: CPLEX 12.10.0.0] [GitHash: 297532de76]
Copyright (C) 2002-2020 Konrad-Zuse-Zentrum fuer Informationstechnik Berlin (ZIB)

External codes: 
  Readline 7.0         GNU library for command line editing (gnu.org/s/readline)
  CPLEX 12.10.0.0      Linear Programming Solver developed by IBM (www.cplex.com)
  CppAD 20180000.0     Algorithmic Differentiation of C++ algorithms developed by B. Bell (www.coin-or.org/CppAD)
  ZLIB 1.2.11          General purpose compression library by J. Gailly and M. Adler (zlib.net)
  GMP 6.1.2            GNU Multiple Precision Arithmetic Library developed by T. Granlund (gmplib.org)
  bliss 0.73p          Computing Graph Automorphism Groups by T. Junttila and P. Kaski (http://www.tcs.hut.fi/Software/bliss/)

user parameter file <scip.set> not found - using default parameters

SCIP> 
SCIP> set load /nfs/OPTI/bzfhende/scip-opti/check/../settings/periodic_report.sett
loaded parameter file </nfs/OPTI/bzfhende/scip-opti/check/../settings/periodic_report.set>
SCIP> set limits time 7200
limits/time = 7200
SCIP> set limits nodes 2100000000
limits/nodes = 2100000000
SCIP> set limits memory 35000
limits/memory = 35000
SCIP> set lp advanced threads 1
lp/threads = 1
SCIP> set timing clocktype 1
timing/clocktype = 1
SCIP> set display freq 10000
display/freq = 10000
SCIP> set memory savefac 1.0
memory/savefac = 1
SCIP> set save /nfs/OPTI/bzfhende/scip-opti/check/treesize.prediction.opm2/bzfhennde.instancegroups_opm2.143_opm2-z12-s2.scip.M620v2.periodic_report.set
saved parameter file </nfs/OPTI/bzfhende/scip-opti/check/treesize.prediction.opm2/bzfhende.instancegroups_opm2.143_opm2-z12-s2.scip.M620v2.periodic_report.set>
SCIP> read /nfs/OPTI/bzfhende/instances//./miplib2010_opm2/instances/opm2-z12-s2..mps.gz

read problem </nfs/OPTI/bzfhende/instances//./miplib2010_opm2/instances/opm2-z12-s2.mps.gz>
============

original problem has 10800 variables (10800 bin, 0 int, 0 impl, 0 cont) and 319508 constraints
SCIP> display parameters

number of parameters = 2603
non-default parameter settings:
display/freq = 10000
limits/time = 7200
limits/nodes = 2100000000
limits/memory = 35000
lp/threads = 1
memory/savefac = 1
timing/clocktype = 1
estimation/restarts/restartpolicy = n
estimation/restarts/restartlimit = 0
estimation/reportfreq = 100
estimation/treeprofile/enabled = TRUE

SCIP> optimize

feasible solution found by trivial heuristic after 0.4 seconds, objective value 0.000000e+00
presolving:
(round 1, fast)       389 del vars, 18581 del conss, 0 add conss, 0 chg bounds, 0 chg sides, 0 chg coeffs, 0 upgd conss, 0 impls, 300879 clqs
(round 2, fast)       396 del vars, 19164 del conss, 0 add conss, 0 chg bounds, 0 chg sides, 0 chg coeffs, 0 upgd conss, 0 impls, 300316 clqs
(round 3, exhaustive) 397 del vars, 19233 del conss, 0 add conss, 0 chg bounds, 0 chg sides, 0 chg coeffs, 300275 upgd conss, 0 impls, 300267 clqs
(round 4, fast)       435 del vars, 20138 del conss, 0 add conss, 0 chg bounds, 0 chg sides, 0 chg coeffs, 300275 upgd conss, 0 impls, 298405 clqs
(round 5, fast)       437 del vars, 21141 del conss, 0 add conss, 0 chg bounds, 0 chg sides, 0 chg coeffs, 300275 upgd conss, 0 impls, 298307 clqs
   (56.8s) probing: 1000/10362 (9.7%) - 0 fixings, 0 aggregations, 345008 implications, 0 bound changes
   (56.8s) probing: 1001/10362 (9.7%) - 0 fixings, 0 aggregations, 345377 implications, 0 bound changes
   (56.8s) probing aborted: 1000/1000 successive useless probings
   (62.6s) symmetry computation started: requiring (bin +, int +, cont +), (fixed: bin -, int -, cont -)
   (63.0s) no symmetry present
presolving (6 rounds: 6 fast, 2 medium, 2 exhaustive):
 438 deleted vars, 21242 deleted constraints, 0 added constraints, 0 tightened bounds, 0 added holes, 0 changed sides, 0 changed coefficients
 0 implications, 643635 cliques
presolved problem has 10362 variables (10362 bin, 0 int, 0 impl, 0 cont) and 298266 constraints
      8 constraints of type <knapsack>
 298258 constraints of type <setppc>
transformed objective value is always integral (scale: 1)
Presolving Time: 62.73
transformed 1/1 original solutions to the transformed problem space

 time | node  | left  |LP iter|LP it/n|mem/heur|mdpt |vars |cons |rows |cuts |sepa|confs|strbr|  dualbound   | primalbound  |  gap   | compl. 
p65.3s|     1 |     0 |     0 |     - | vbounds|   0 |  10k| 298k| 298k|   0 |  0 |   7 |   0 |-9.743460e+05 |-3.507700e+04 |2677.73%| unknown
  158s|     1 |     0 | 42677 |     - |  2428M |   0 |  10k| 298k| 298k|   0 |  0 |  11 |   0 |-9.524228e+04 |-3.507700e+04 | 171.52%| unknown
r 160s|     1 |     0 | 42677 |     - |shifting|   0 |  10k| 298k| 298k|   0 |  0 |  21 |   0 |-9.524228e+04 |-3.938200e+04 | 141.84%| unknown
i 160s|     1 |     0 | 42677 |     - |  oneopt|   0 |  10k| 298k| 298k|   0 |  0 |  21 |   0 |-9.524228e+04 |-3.975500e+04 | 139.57%| unknown
d2595s|     1 |     0 |145227 |     - |farkasdi|   0 |  10k| 298k| 298k|   0 |  2 |  21 |   0 |-9.524228e+04 |-5.426500e+04 |  75.51%| unknown
 4086s|     1 |     0 |204894 |     - |  2540M |   0 |  10k| 298k| 298k|   0 |  2 |  41 |   0 |-9.524228e+04 |-5.426500e+04 |  75.51%| unknown
 4597s|     1 |     2 |204894 |     - |  2543M |   0 |  10k| 298k| 298k|   0 |  4 |  43 |  28 |-9.429913e+04 |-5.426500e+04 |  73.78%| unknown

SCIP Status        : solving was interrupted [time limit reached]
Solving Time (sec) : 7200.02
Solving Nodes      : 7
Primal Bound       : -5.42650000000000e+04 (5 solutions)
Dual Bound         : -9.13239355733597e+04
Gap                : 68.29 %

SCIP> display statistics

SCIP Status        : solving was interrupted [time limit reached]
Total Time         :    7200.75
  solving          :    7200.02
  presolving       :      62.73 (included in solving)
  reading          :       0.73
  copying          :       0.38 (1 #copies) (minimal 0.38, maximal 0.38, average 0.38)
Original Problem   :
  Problem name     : opm2-z12-s2
  Variables        : 10800 (10800 binary, 0 integer, 0 implicit integer, 0 continuous)
  Constraints      : 319508 initial, 319508 maximal
  Objective        : minimize, 10725 non-zeros (abs.min = 1, abs.max = 573)
Presolved Problem  :
  Problem name     : t_opm2-z12-s2
  Variables        : 10362 (10362 binary, 0 integer, 0 implicit integer, 0 continuous)
  Constraints      : 298266 initial, 298308 maximal
  Objective        : minimize, 10290 non-zeros (abs.min = 1, abs.max = 573)
  Nonzeros         : 679399 constraint, 1287270 clique table
Presolvers         :   ExecTime  SetupTime  Calls  FixedVars   AggrVars   ChgTypes  ChgBounds   AddHoles    DelCons    AddCons   ChgSides   ChgCoefs
  boundshift       :       0.00       0.00      0          0          0          0          0          0          0          0          0          0
  convertinttobin  :       0.00       0.00      0          0          0          0          0          0          0          0          0          0
  domcol           :       0.17       0.00      1          0          0          0          0          0          0          0          0          0
  dualagg          :       0.00       0.00      0          0          0          0          0          0          0          0          0          0
  dualcomp         :       0.00       0.00      0          0          0          0          0          0          0          0          0          0
  dualinfer        :       0.00       0.00      0          0          0          0          0          0          0          0          0          0
  dualsparsify     :       5.76       0.00      1          0          0          0          0          0          0          0          0          0
  gateextraction   :       0.00       0.00      0          0          0          0          0          0          0          0          0          0
  implics          :       0.00       0.00      2          0          0          0          0          0          0          0          0          0
  inttobinary      :       0.00       0.00      0          0          0          0          0          0          0          0          0          0
  qpkktref         :       0.00       0.00      0          0          0          0          0          0          0          0          0          0
  redvub           :       0.00       0.00      0          0          0          0          0          0          0          0          0          0
  sparsify         :       0.22       0.00      1          0          0          0          0          0          0          0          0          0
  stuffing         :       0.00       0.00      0          0          0          0          0          0          0          0          0          0
  trivial          :       0.00       0.00      6          0          0          0          0          0          0          0          0          0
  tworowbnd        :       0.20       0.00      1          0          0          0          0          0          0          0          0          0
  dualfix          :       0.00       0.00      6        388          0          0          0          0          0          0          0          0
  genvbounds       :       0.00       0.00      0          0          0          0          0          0          0          0          0          0
  probing          :      50.03       0.00      1          0          0          0          0          0          0          0          0          0
  pseudoobj        :       0.00       0.00      4          0          0          0          0          0          0          0          0          0
  symmetry         :       0.41       0.00      1          0          0          0          0          0          0          0          0          0
  vbounds          :       0.04       0.00      1          0          0          0          0          0          0          0          0          0
  knapsack         :       1.92       0.00      5          0          0          0          0          0          0          0          0          0
  setppc           :       0.96       0.02      5         40          0          0          0          0       2009          0          0          0
  linear           :       2.71       0.09      4          0         10          0          0          0      19233          0          0          0
  logicor          :       0.00       0.00      0          0          0          0          0          0          0          0          0          0
  benders          :       0.00       0.00      0          0          0          0          0          0          0          0          0          0
  components       :       0.09       0.00      1          0          0          0          0          0          0          0          0          0
  root node        :          -          -      -          0          -          -          0          -          -          -          -          -
Constraints        :     Number  MaxNumber  #Separate #Propagate    #EnfoLP    #EnfoRelax  #EnfoPS    #Check   #ResProp    Cutoffs    DomReds       Cuts    Applied      Conss   Children
  benderslp        :          0          0          0          0          7          0          0         12          0          0          0          0          0          0          0
  integral         :          0          0          0          0          7          0          0         12          0          0          0          0          0          0         14
  knapsack         :          8          8          2      29956          0          0          0          7          4          7          0          0          0          0          0
  setppc           :     298258     298258          2      29938          0          0          0          5      18763          4       1468          0          0          0          0
  logicor          :          0+        42          2        249          0          0          0          0          0          0          0          0          0          0          0
  benders          :          0          0          0          0          0          0          0          7          0          0          0          0          0          0          0
  countsols        :          0          0          0          0          0          0          0          7          0          0          0          0          0          0          0
  components       :          0          0          0          0          0          0          0          0          0          0          0          0          0          0          0
Constraint Timings :  TotalTime  SetupTime   Separate  Propagate     EnfoLP     EnfoPS     EnfoRelax   Check    ResProp    SB-Prop
  benderslp        :       0.00       0.00       0.00       0.00       0.00       0.00       0.00       0.00       0.00       0.00
  integral         :    2680.68       0.00       0.00       0.00    2680.68       0.00       0.00       0.00       0.00       0.00
  knapsack         :      18.42       0.00      15.55       2.76       0.00       0.00       0.00       0.02       0.00       0.09
  setppc           :      14.00       0.02       0.14      12.68       0.00       0.00       0.00       0.05       0.02       1.09
  logicor          :       0.00       0.00       0.00       0.00       0.00       0.00       0.00       0.00       0.00       0.00
  benders          :       0.00       0.00       0.00       0.00       0.00       0.00       0.00       0.00       0.00       0.00
  countsols        :       0.00       0.00       0.00       0.00       0.00       0.00       0.00       0.00       0.00       0.00
  components       :       0.00       0.00       0.00       0.00       0.00       0.00       0.00       0.00       0.00       0.00
Propagators        : #Propagate   #ResProp    Cutoffs    DomReds
  dualfix          :          3          0          0          0
  genvbounds       :          0          0          0          0
  nlobbt           :          0          0          0          0
  obbt             :          0          0          0          0
  probing          :          0          0          0          0
  pseudoobj        :         54          0          0          0
  redcost          :          4          0          0          0
  rootredcost      :          1          0          0          0
  symmetry         :          0          0          0          0
  vbounds          :      22065          0          0          0
Propagator Timings :  TotalTime  SetupTime   Presolve  Propagate    ResProp    SB-Prop
  dualfix          :       0.00       0.00       0.00       0.00       0.00       0.00
  genvbounds       :       0.02       0.00       0.00       0.01       0.00       0.01
  nlobbt           :       0.00       0.00       0.00       0.00       0.00       0.00
  obbt             :       0.00       0.00       0.00       0.00       0.00       0.00
  probing          :      50.03       0.00      50.03       0.00       0.00       0.00
  pseudoobj        :       0.23       0.00       0.00       0.22       0.00       0.01
  redcost          :       0.02       0.00       0.00       0.02       0.00       0.00
  rootredcost      :       0.02       0.00       0.00       0.02       0.00       0.00
  symmetry         :       0.44       0.00       0.41       0.02       0.00       0.01
  vbounds          :       0.10       0.00       0.04       0.04       0.00       0.02
Conflict Analysis  :       Time      Calls    Success    DomReds  Conflicts   Literals    Reconvs ReconvLits   Dualrays   Nonzeros   LP Iters   (pool size: [10000,10000])
  propagation      :       0.08          8          8          -        566     1239.9          0        0.0          -          -          -
  infeasible LP    :       0.00          0          0          -          0        0.0          0        0.0          0        0.0          0
  bound exceed. LP :       0.89          3          2          -        263     1216.7          0        0.0          0        0.0         60
  strong branching :       0.00          0          0          -          0        0.0          0        0.0          -          -          0
  pseudo solution  :       0.00          0          0          -          0        0.0          0        0.0          -          -          -
  applied globally :       0.00          -          -          0         43      540.7          -          -          0          -          -
  applied locally  :          -          -          -          0          0        0.0          -          -          0          -          -
Separators         :   ExecTime  SetupTime      Calls    Cutoffs    DomReds       Cuts    Applied      Conss
  cut pool         :       0.00                     0          -          -          0          -          -    (maximal pool size: 0)
  aggregation      :      32.16       0.00          2          0          0          0          0          0
  cgmip            :       0.00       0.00          0          0          0          0          0          0
  clique           :      12.04       0.00          2          0          0          0          0          0
  closecuts        :       0.00       0.00          0          0          0          0          0          0
  cmir             :       0.00       0.00          0          0          0          0          0          0
  convexproj       :       0.00       0.00          0          0          0          0          0          0
  disjunctive      :       0.00       0.00          0          0          0          0          0          0
  eccuts           :       0.00       0.00          0          0          0          0          0          0
  flowcover        :       0.00       0.00          0          0          0          0          0          0
  gauge            :       0.00       0.00          0          0          0          0          0          0
  gomory           :      91.89       0.00          2          0          0          0          0          0
  impliedbounds    :       0.03       0.00          2          0          0          0          0          0
  intobj           :       0.00       0.00          0          0          0          0          0          0
  mcf              :       0.27       0.00          1          0          0          0          0          0
  oddcycle         :       0.00       0.00          0          0          0          0          0          0
  rapidlearning    :       0.01       0.00          0          0          0          0          0          0
  strongcg         :      91.45       0.00          2          0          0          0          0          0
  zerohalf         :      51.33       0.00          2          0          0          0          0          0
Pricers            :   ExecTime  SetupTime      Calls       Vars
  problem variables:       0.00          -          0          0
Branching Rules    :   ExecTime  SetupTime   BranchLP  BranchExt   BranchPS    Cutoffs    DomReds       Cuts      Conss   Children
  allfullstrong    :       0.00       0.00          0          0          0          0          0          0          0          0
  cloud            :       0.00       0.00          0          0          0          0          0          0          0          0
  distribution     :       0.00       0.00          0          0          0          0          0          0          0          0
  fullstrong       :       0.00       0.00          0          0          0          0          0          0          0          0
  inference        :       0.00       0.00          0          0          0          0          0          0          0          0
  leastinf         :       0.00       0.00          0          0          0          0          0          0          0          0
  lookahead        :       0.00       0.00          0          0          0          0          0          0          0          0
  mostinf          :       0.00       0.00          0          0          0          0          0          0          0          0
  multaggr         :       0.00       0.00          0          0          0          0          0          0          0          0
  nodereopt        :       0.00       0.00          0          0          0          0          0          0          0          0
  pscost           :       0.00       0.00          0          0          0          0          0          0          0          0
  random           :       0.00       0.00          0          0          0          0          0          0          0          0
  relpscost        :    2680.68       0.00          7          0          0          0          0          0          0         14
  vanillafullstrong:       0.00       0.00          0          0          0          0          0          0          0          0
Primal Heuristics  :   ExecTime  SetupTime      Calls      Found       Best
  LP solutions     :       0.00          -          -          0          0
  relax solutions  :       0.00          -          -          0          0
  pseudo solutions :       0.00          -          -          0          0
  strong branching :       0.00          -          -          0          0
  actconsdiving    :       0.00       0.00          0          0          0
  adaptivediving   :       0.00       0.00          0          0          0
  alns             :       1.11       0.00          1          0          0
  bound            :       0.00       0.00          0          0          0
  clique           :       0.42       0.00          1          0          0
  coefdiving       :       0.00       0.00          0          0          0
  completesol      :       0.00       0.00          0          0          0
  conflictdiving   :     552.11       0.00          1          0          0
  crossover        :       0.00       0.00          0          0          0
  dins             :       0.00       0.00          0          0          0
  distributiondivin:       0.00       0.00          0          0          0
  dualval          :       0.00       0.00          0          0          0
  farkasdiving     :    2284.51       0.00          1          1          1
  feaspump         :     936.91       0.00          1          0          0
  fixandinfer      :       0.00       0.00          0          0          0
  fracdiving       :       0.00       0.00          0          0          0
  gins             :       0.00       0.00          0          0          0
  guideddiving     :       0.00       0.00          0          0          0
  indicator        :       0.00       0.00          0          0          0
  intdiving        :       0.00       0.00          0          0          0
  intshifting      :       0.00       0.00          0          0          0
  linesearchdiving :       0.00       0.00          0          0          0
  localbranching   :       0.00       0.00          0          0          0
  locks            :       0.58       0.00          1          0          0
  lpface           :       0.00       0.00          0          0          0
  mpec             :       0.00       0.00          0          0          0
  multistart       :       0.00       0.00          0          0          0
  mutation         :       0.00       0.00          0          0          0
  nlpdiving        :       0.00       0.00          0          0          0
  objpscostdiving  :       0.00       0.00          0          0          0
  octane           :       0.00       0.00          0          0          0
  ofins            :       0.00       0.00          0          0          0
  oneopt           :       0.10       0.00          3          1          1
  padm             :       0.00       0.00          0          0          0
  proximity        :       0.00       0.00          0          0          0
  pscostdiving     :       0.00       0.00          0          0          0
  randrounding     :       0.37       0.00          2          0          0
  rens             :       0.00       0.00          0          0          0
  reoptsols        :       0.00       0.00          0          0          0
  repair           :       0.00       0.00          0          0          0
  rins             :       0.00       0.00          0          0          0
  rootsoldiving    :       0.00       0.00          0          0          0
  rounding         :       8.31       0.00          8          0          0
  shiftandpropagate:       0.00       0.00          0          0          0
  shifting         :       2.40       0.00          2          1          1
  simplerounding   :       0.00       0.00          8          0          0
  subnlp           :       0.00       0.00          0          0          0
  trivial          :       0.03       0.00          2          1          1
  trivialnegation  :       0.00       0.00          0          0          0
  trustregion      :       0.00       0.00          0          0          0
  trysol           :       0.00       0.00          0          0          0
  twoopt           :       0.00       0.00          0          0          0
  undercover       :       0.00       0.00          0          0          0
  vbounds          :       3.19       0.00          1          1          1
  veclendiving     :       0.00       0.00          0          0          0
  zeroobj          :       0.00       0.00          0          0          0
  zirounding       :       0.29       0.00          6          0          0
  other solutions  :          -          -          -          0          -
Diving (single)    :      Calls      Nodes   LP Iters Backtracks  Conflicts   MinDepth   MaxDepth   AvgDepth  RoundSols  NLeafSols  MinSolDpt  MaxSolDpt  AvgSolDpt
  actconsdiving    :          0          -          -          -          -          -          -          -          -          -          -          -          -
  coefdiving       :          0          -          -          -          -          -          -          -          -          -          -          -          -
  conflictdiving   :          1        192      25719          1        263        192        192      192.0          0          -          -          -          -
  distributiondivin:          0          -          -          -          -          -          -          -          -          -          -          -          -
  farkasdiving     :          1        723     102550          0          0        724        724      724.0          0          1        724        724      724.0
  fracdiving       :          0          -          -          -          -          -          -          -          -          -          -          -          -
  guideddiving     :          0          -          -          -          -          -          -          -          -          -          -          -          -
  linesearchdiving :          0          -          -          -          -          -          -          -          -          -          -          -          -
  pscostdiving     :          0          -          -          -          -          -          -          -          -          -          -          -          -
  veclendiving     :          0          -          -          -          -          -          -          -          -          -          -          -          -
Diving (adaptive)  :      Calls      Nodes   LP Iters Backtracks  Conflicts   MinDepth   MaxDepth   AvgDepth  RoundSols  NLeafSols  MinSolDpt  MaxSolDpt  AvgSolDpt
  actconsdiving    :          0          -          -          -          -          -          -          -          -          -          -          -          -
  coefdiving       :          0          -          -          -          -          -          -          -          -          -          -          -          -
  conflictdiving   :          0          -          -          -          -          -          -          -          -          -          -          -          -
  distributiondivin:          0          -          -          -          -          -          -          -          -          -          -          -          -
  farkasdiving     :          0          -          -          -          -          -          -          -          -          -          -          -          -
  fracdiving       :          0          -          -          -          -          -          -          -          -          -          -          -          -
  guideddiving     :          0          -          -          -          -          -          -          -          -          -          -          -          -
  linesearchdiving :          0          -          -          -          -          -          -          -          -          -          -          -          -
  pscostdiving     :          0          -          -          -          -          -          -          -          -          -          -          -          -
  veclendiving     :          0          -          -          -          -          -          -          -          -          -          -          -          -
Neighborhoods      :      Calls  SetupTime  SolveTime SolveNodes       Sols       Best       Exp3  EpsGreedy        UCB TgtFixRate  Opt  Inf Node Stal  Sol  Usr Othr Actv
  rens             :          0       0.00       0.00          0          0          0    0.00000   -1.00000    1.00000      0.900    0    0    0    0    0    0    0    1
  rins             :          0       0.00       0.00          0          0          0    0.00000   -1.00000    1.00000      0.900    0    0    0    0    0    0    0    1
  mutation         :          1       0.57       0.48          0          0          0    0.00000   -1.00000    1.00000      0.700    0    1    0    0    0    0    0    1
  localbranching   :          0       0.00       0.00          0          0          0    0.00000   -1.00000    1.00000      0.900    0    0    0    0    0    0    0    1
  crossover        :          0       0.00       0.00          0          0          0    0.00000   -1.00000    1.00000      0.900    0    0    0    0    0    0    0    1
  proximity        :          0       0.00       0.00          0          0          0    0.00000   -1.00000    1.00000      0.900    0    0    0    0    0    0    0    1
  zeroobjective    :          0       0.00       0.00          0          0          0    0.00000   -1.00000    1.00000      0.900    0    0    0    0    0    0    0    1
  dins             :          0       0.00       0.00          0          0          0    0.00000   -1.00000    1.00000      0.900    0    0    0    0    0    0    0    1
  trustregion      :          0       0.00       0.00          0          0          0    0.00000   -1.00000    1.00000      0.900    0    0    0    0    0    0    0    0
LP                 :       Time      Calls Iterations  Iter/call   Iter/sec  Time-0-It Calls-0-It    ItLimit
  primal LP        :       0.00          0          0       0.00          -       0.00          0
  dual LP          :     370.74          8      55976    7996.57     150.98       0.02          1
  lex dual LP      :       0.00          0          0       0.00          -
  barrier LP       :       0.00          0          0       0.00          -       0.00          0
  resolve instable :       0.00          0          0       0.00          -
  diving/probing LP:    3761.00        729     162217     222.52      43.13
  strong branching :    2675.24        184     169610     921.79      63.40          -          -        301
    (at root node) :          -         28      27200     971.43          -
  conflict analysis:       0.67          6         60      10.00      89.55
B&B Tree           :
  number of runs   :          1
  nodes            :          7 (7 internal, 0 leaves)
  feasible leaves  :          0
  infeas. leaves   :          0
  objective leaves :          0
  nodes (total)    :          7 (7 internal, 0 leaves)
  nodes left       :          8
  max depth        :          4
  max depth (total):          4
  backtracks       :          0 (0.0%)
  early backtracks :          0 (0.0%)
  nodes exc. ref.  :          0 (0.0%)
  delayed cutoffs  :          0
  repropagations   :          0 (0 domain reductions, 0 cutoffs)
  avg switch length:       1.29
  switching time   :       0.00
Estim. Tree Size   :         -1
Estimation Tree    : 15 nodes (7 visited, 7 inner, 0 leaves, 8 open), weight: 0.0000 completed 0.0597
Estimations        :      estim      value      trend resolution     smooth
  wbe              :         -1          -          -          -          -
  tree-profile     :         -1          -          -          -          -
  gap              :         -1    0.59420                     1           
  tree-weight      :         -1    0.00000                     1           
  leaf-frequency   :         -1   -0.07143                     1           
  ssg              :         -1    0.90566                     1           
  open-nodes       :         -1    8.00000                     1           
Root Node          :
  First LP value   : -9.52422784042948e+04
  First LP Iters   :      42677 (473.45 Iter/sec)
  First LP Time    :      90.14
  Final Dual Bound : -9.42991296273831e+04
  Final Root Iters :      42677
  Root LP Estimate : -5.67273537227413e+04
Solution           :
  Solutions found  :          5 (5 improvements)
  First Solution   : +0.00000000000000e+00   (in run 1, after 0 nodes, 0.36 seconds, depth 0, found by <trivial>)
  Gap First Sol.   :   infinite
  Gap Last Sol.    :      75.51 %
  Primal Bound     : -5.42650000000000e+04   (in run 1, after 1 nodes, 2595.49 seconds, depth 724, found by <farkasdiving>)
  Dual Bound       : -9.13239355733597e+04
  Gap              :      68.29 %
Integrals          :      Total       Avg%
  primal-dual      :  349475.05      48.54
  primal-ref       :          -          - (not evaluated)
  dual-ref         :          -          - (not evaluated)

SCIP> checksol

check best solution
solution is feasible in original problem
Violation          :    absolute    relative
  bounds           : 0.00000e+00 0.00000e+00
  integrality      : 0.00000e+00           -
  LP rows          : 0.00000e+00 0.00000e+00
  constraints      : 0.00000e+00 0.00000e+00

SCIP> write sol /local/tmp/bzfhende-tmpdir/bzfhende.instancegroups_opm2.143_opm2--z12-s2.scip.M620v2.periodic_report.sol

written solution information to file </local/tmp/bzfhende-tmpdir/bzfhende.instancegroups_opm2.143_opm2-z12-s2.scip.M620v2.periodic_report.sol>

SCIP> quit

Read MPS: 1
MIP has 10800 vars and 319508 constraints
Read SOL: 1
Objective value computed by solver: -54265

Integrality tolerance: 1/10000
Linear tolerance: 1/10000
Objective tolerance: 1/10000

Check SOL: Integrality 1 Constraints 1 Objective 1
Maximum violations: Integrality 0 Constraints 0 Objective 0
@04 1583663007
-----------------------------
So 8. Mär 11:23:27 CET 2020
-----------------------------

=ready=
